Using license file /home/brunoalmeda/gurobi.lic
Academic license - for non-commercial use only
Changed value of parameter TimeLimit to 7200.0
   Prev: inf  Min: 0.0  Max: inf  Default: inf
Changed value of parameter lazyconstraints to 1
   Prev: 0  Min: 0  Max: 1  Default: 0
Gurobi Optimizer version 9.0.1 build v9.0.1rc0 (linux64)
Optimize a model with 961 rows, 2790 columns and 6330 nonzeros
Model fingerprint: 0xca65279a
Variable types: 930 continuous, 1860 integer (1860 binary)
Coefficient statistics:
  Matrix range     [1e+00, 8e+00]
  Objective range  [2e+05, 2e+06]
  Bounds range     [1e+00, 3e+01]
  RHS range        [1e+00, 1e+00]
Presolve removed 1 rows and 30 columns
Presolve time: 0.01s
Presolved: 960 rows, 2760 columns, 6270 nonzeros
Variable types: 900 continuous, 1860 integer (1860 binary)
Found heuristic solution: objective 3.460862e+07

Root relaxation: objective 9.813339e+06, 1313 iterations, 0.01 seconds

    Nodes    |    Current Node    |     Objective Bounds      |     Work
 Expl Unexpl |  Obj  Depth IntInf | Incumbent    BestBd   Gap | It/Node Time

     0     0 9813338.69    0   35 3.4609e+07 9813338.69  71.6%     -    0s
H    0     0                    1.098092e+07 9813338.69  10.6%     -    0s
     0     0 9867989.41    0   57 1.0981e+07 9867989.41  10.1%     -    0s
     0     0 9964207.24    0   52 1.0981e+07 9964207.24  9.26%     -    0s
     0     0 9966224.09    0   55 1.0981e+07 9966224.09  9.24%     -    0s
     0     0 9987410.98    0   43 1.0981e+07 9987410.98  9.05%     -    0s
H    0     0                    1.042388e+07 9987410.98  4.19%     -    0s
     0     0 9989014.66    0   47 1.0424e+07 9989014.66  4.17%     -    0s
     0     0 9989032.20    0   48 1.0424e+07 9989032.20  4.17%     -    0s
     0     0 1.0001e+07    0   42 1.0424e+07 1.0001e+07  4.06%     -    0s
     0     0 1.0001e+07    0   35 1.0424e+07 1.0001e+07  4.06%     -    0s
H    0     0                    1.008700e+07 1.0001e+07  0.86%     -    0s
     0     0 1.0001e+07    0   43 1.0087e+07 1.0001e+07  0.86%     -    0s
     0     0 1.0001e+07    0   32 1.0087e+07 1.0001e+07  0.86%     -    0s
     0     0 1.0001e+07    0   33 1.0087e+07 1.0001e+07  0.86%     -    0s
H    0     0                    1.005667e+07 1.0001e+07  0.56%     -    0s
     0     0 1.0001e+07    0   33 1.0057e+07 1.0001e+07  0.56%     -    0s
     0     0 1.0001e+07    0   38 1.0057e+07 1.0001e+07  0.56%     -    0s
     0     0 1.0006e+07    0   53 1.0057e+07 1.0006e+07  0.51%     -    0s
     0     0 1.0007e+07    0   53 1.0057e+07 1.0007e+07  0.50%     -    0s
     0     0 1.0007e+07    0   51 1.0057e+07 1.0007e+07  0.50%     -    0s
     0     0 1.0008e+07    0   44 1.0057e+07 1.0008e+07  0.48%     -    0s
     0     0 1.0009e+07    0   45 1.0057e+07 1.0009e+07  0.48%     -    0s
     0     0 1.0009e+07    0   48 1.0057e+07 1.0009e+07  0.48%     -    0s
     0     0 1.0010e+07    0   45 1.0057e+07 1.0010e+07  0.46%     -    0s
     0     0 1.0011e+07    0   50 1.0057e+07 1.0011e+07  0.46%     -    0s
     0     0 1.0011e+07    0   53 1.0057e+07 1.0011e+07  0.46%     -    0s
     0     0 1.0011e+07    0   60 1.0057e+07 1.0011e+07  0.45%     -    0s
     0     0 1.0011e+07    0   60 1.0057e+07 1.0011e+07  0.45%     -    0s
     0     2 1.0015e+07    0   60 1.0057e+07 1.0015e+07  0.42%     -    0s

Cutting planes:
  Gomory: 14
  Cover: 3
  Implied bound: 19
  MIR: 101
  Inf proof: 1
  Network: 12
  RLT: 11
  Relax-and-lift: 9

Explored 1137 nodes (21579 simplex iterations) in 0.86 seconds
Thread count was 8 (of 8 available processors)

Solution count 5: 1.00567e+07 1.0087e+07 1.04239e+07 ... 3.46086e+07

Optimal solution found (tolerance 1.00e-04)
Best objective 1.005667031140e+07, best bound 1.005667031140e+07, gap 0.0000%

User-callback calls 2930, time in user-callback 0.02 sec

Solução: 10056670.311401214450598
Conexões:
> Subestação = 30
> Valores: origem destino cabo
0 5 0
1 6 0
2 3 1
3 4 1
4 30 1
5 6 0
6 7 0
7 2 0
8 9 1
9 30 1
10 11 0
11 12 0
12 8 0
13 12 0
14 30 1
15 11 0
16 17 0
17 18 0
18 14 1
19 30 1
20 21 0
21 16 0
22 23 0
23 19 0
24 19 0
25 21 0
26 22 0
27 26 0
28 29 0
29 24 0
